1 -1 -2 0
1 -1 -3 0
1 1 -4 0
1 5 -2 0
1 -5 -3 0
1 -5 -1 0
1 -5 -4 0
1 6 -7 0
1 6 2 0
1 -6 3 0
1 6 8 0
1 -6 -9 0
1 6 -10 0
1 7 -11 0
1 -7 3 0
1 -7 -8 0
1 -7 6 0
1 -7 -4 0
1 7 -10 0
1 3 12 0
1 3 13 0
1 3 -14 0
1 -3 1 0
1 -10 13 0
1 10 -15 0
1 -10 -14 0
1 10 6 0
1 -10 -1 0
1 -2 7 0
1 -2 -16 0
1 2 -17 0
1 -2 6 0
1 -2 1 0
1 2 -4 0
1 -4 18 0
1 -4 -7 0
1 -4 2 0
1 -4 19 0
1 20 -15 0
1 20 21 0
1 -15 -22 0
1 15 -23 0
1 -15 3 0
1 14 24 0
1 -14 8 0
1 -14 -10 0
1 13 22 0
1 -13 -3 0
1 13 10 0
1 8 23 0
1 8 -13 0
1 8 -7 0
1 -8 -25 0
1 -8 26 0
1 8 -20 0
1 8 -27 0
1 -23 -28 0
1 23 7 0
1 -23 -29 0
1 -23 -20 0
1 23 -6 0
1 -21 13 0
1 -21 -20 0
1 -21 27 0
1 22 -12 0
1 22 -13 0
1 22 -15 0
1 -22 17 0
1 22 -6 0
1 -25 -30 0
1 -25 -8 0
1 -25 31 0
1 32 23 0
1 -32 -24 0
1 32 25 0
1 -32 -8 0
1 32 -33 0
1 -34 35 0
1 34 30 0
1 34 -36 0
1 -35 8 0
1 31 -32 0
1 31 24 0
1 -31 -37 0
1 31 -34 0
1 31 14 0
1 31 -38 0
1 -24 32 0
1 24 -13 0
1 24 34 0
1 24 31 0
1 -24 38 0
1 -33 37 0
1 -33 29 0
1 33 34 0
1 -33 39 0
1 30 40 0
1 -30 -41 0
1 -30 -34 0
1 30 25 0
1 -30 33 0
1 30 27 0
1 -42 -43 0
1 -42 44 0
1 -42 -1 0
1 45 -43 0
1 -45 -5 0
1 -45 -46 0
1 9 47 0
1 9 -48 0
1 -9 44 0
1 -9 49 0
1 -9 -6 0
1 -11 -50 0
1 11 7 0
1 11 44 0
1 -11 -49 0
1 -11 9 0
1 47 18 0
1 47 -51 0
1 47 52 0
1 47 11 0
1 47 53 0
1 -47 9 0
1 46 54 0
1 46 -52 0
1 46 11 0
1 46 -45 0
1 -43 -55 0
1 -43 56 0
1 -43 11 0
1 43 -45 0
1 -43 -57 0
1 -44 -43 0
1 44 45 0
1 -44 -58 0
1 53 47 0
1 52 -15 0
1 59 60 0
1 -59 -2 0
1 -59 -46 0
1 -59 61 0
1 59 62 0
1 59 63 0
1 -18 -49 0
1 18 47 0
1 18 13 0
1 18 -64 0
1 18 50 0
1 -18 -65 0
1 18 2 0
1 -18 -4 0
1 50 -66 0
1 -50 -67 0
1 -50 -11 0
1 -50 -68 0
1 50 -53 0
1 -49 -69 0
1 49 -70 0
1 -49 -9 0
1 48 -69 0
1 -48 54 0
1 -48 -11 0
1 -48 71 0
1 48 -58 0
1 -61 -69 0
1 -61 -54 0
1 61 -18 0
1 -61 48 0
1 61 -11 0
1 -61 71 0
1 -61 -53 0
1 17 -12 0
1 -17 60 0
1 17 -21 0
1 -17 -25 0
1 -12 -32 0
1 -12 -54 0
1 -12 -2 0
1 12 21 0
1 -12 10 0
1 -36 -22 0
1 -36 -66 0
1 -36 -60 0
1 -36 -72 0
1 -36 -34 0
1 -36 -63 0
1 -66 35 0
1 -66 -60 0
1 66 -72 0
1 -66 21 0
1 -66 73 0
1 -66 -19 0
1 -65 66 0
1 65 12 0
1 65 74 0
1 -65 -41 0
1 65 -36 0
1 -65 -59 0
1 -73 -12 0
1 -73 65 0
1 -73 41 0
1 -73 29 0
1 73 75 0
1 -73 59 0
1 60 66 0
1 60 -12 0
1 60 -18 0
1 -60 -76 0
1 -60 68 0
1 -60 59 0
1 -60 -63 0
1 -63 -66 0
1 -63 -12 0
1 -63 -74 0
1 -63 -68 0
1 63 36 0
1 63 -17 0
1 63 59 0
1 -29 -77 0
1 -29 16 0
1 29 -21 0
1 -29 73 0
1 -29 -19 0
1 -27 69 0
1 27 -29 0
1 -27 33 0
1 41 78 0
1 -41 -28 0
1 -41 -76 0
1 41 26 0
1 -41 -33 0
1 -41 73 0
1 41 -79 0
1 79 -77 0
1 79 -78 0
1 -79 -65 0
1 -79 -41 0
1 79 80 0
1 -79 26 0
1 -79 -33 0
1 -72 -77 0
1 72 -66 0
1 72 29 0
1 72 -3 0
1 -72 36 0
1 72 81 0
1 72 -27 0
1 77 66 0
1 -77 82 0
1 77 -37 0
1 77 -29 0
1 -77 72 0
1 -16 83 0
1 -16 -84 0
1 16 2 0
1 16 36 0
1 16 81 0
1 16 -85 0
1 -19 74 0
1 -19 86 0
1 -37 77 0
1 -37 30 0
1 37 -80 0
1 -37 -33 0
1 -37 38 0
1 38 78 0
1 38 37 0
1 38 -26 0
1 38 33 0
1 -82 -78 0
1 -82 28 0
1 82 40 0
1 82 87 0
1 -82 -88 0
1 -82 84 0
1 82 -72 0
1 82 -80 0
1 -82 -39 0
1 -87 77 0
1 87 -72 0
1 -87 -80 0
1 87 -26 0
1 -87 39 0
1 87 86 0
1 -26 -89 0
1 26 -28 0
1 -26 90 0
1 26 -41 0
1 26 91 0
1 -26 -92 0
1 26 93 0
1 -26 38 0
1 -26 79 0
1 28 -89 0
1 28 94 0
1 -28 -91 0
1 28 38 0
1 -80 -95 0
1 80 -83 0
1 -80 82 0
1 80 37 0
1 80 -41 0
1 -80 96 0
1 80 -87 0
1 -80 -79 0
1 -78 89 0
1 -78 -82 0
1 -78 37 0
1 -78 -91 0
1 78 -97 0
1 -78 -38 0
1 -94 -88 0
1 -94 -26 0
1 93 -94 0
1 -93 -88 0
1 93 98 0
1 90 -88 0
1 90 -98 0
1 -99 88 0
1 99 26 0
1 -99 -97 0
1 -99 39 0
1 -98 -100 0
1 98 -88 0
1 98 82 0
1 -98 -101 0
1 98 -99 0
1 98 -31 0
1 88 100 0
1 88 -24 0
1 -88 -93 0
1 88 98 0
1 -39 -100 0
1 39 -89 0
1 39 -94 0
1 39 -99 0
1 39 102 0
1 39 -87 0
1 -40 -100 0
1 40 30 0
1 40 101 0
1 -40 -39 0
1 40 -91 0
1 103 104 0
1 -103 -42 0
1 104 105 0
1 -104 -106 0
1 -104 103 0
1 107 -105 0
1 107 108 0
1 -107 -109 0
1 107 110 0
1 111 112 0
1 111 -106 0
1 111 107 0
1 106 -113 0
1 -106 -105 0
1 106 -111 0
1 106 -114 0
1 -106 -107 0
1 -106 103 0
1 -105 -106 0
1 -105 -62 0
1 -105 103 0
1 -115 -116 0
1 115 117 0
1 -115 107 0
1 118 -111 0
1 -118 115 0
1 -118 119 0
1 -57 43 0
1 -57 -120 0
1 57 -53 0
1 56 43 0
1 -56 52 0
1 -56 120 0
1 -62 64 0
1 62 108 0
1 -62 121 0
1 -62 44 0
1 -62 59 0
1 -62 -106 0
1 62 -109 0
1 -62 122 0
1 -64 123 0
1 -64 43 0
1 -64 -106 0
1 64 -18 0
1 -64 -105 0
1 -64 -108 0
1 64 -124 0
1 -64 -44 0
1 64 62 0
1 64 109 0
1 64 112 0
1 -64 122 0
1 -112 -125 0
1 -112 -54 0
1 -112 -111 0
1 112 58 0
1 -112 -62 0
1 120 126 0
1 120 -64 0
1 -120 -56 0
1 -120 127 0
1 120 -62 0
1 120 107 0
1 -109 -126 0
1 109 56 0
1 -109 127 0
1 -109 57 0
1 -108 -113 0
1 -108 128 0
1 -108 57 0
1 108 107 0
1 -58 -54 0
1 58 -120 0
1 -58 44 0
1 58 -61 0
1 -58 -17 0
1 -54 123 0
1 -54 43 0
1 -54 12 0
1 54 44 0
1 54 -61 0
1 -54 122 0
1 71 55 0
1 -71 124 0
1 -71 36 0
1 -71 61 0
1 71 122 0
1 -125 -123 0
1 -125 -55 0
1 125 -48 0
1 -125 124 0
1 125 112 0
1 -125 122 0
1 123 69 0
1 -123 129 0
1 -123 -54 0
1 123 58 0
1 -123 62 0
1 -123 -130 0
1 124 -69 0
1 124 68 0
1 124 -58 0
1 -122 126 0
1 -122 125 0
1 122 121 0
1 122 131 0
1 122 -127 0
1 -121 126 0
1 -121 132 0
1 -121 -133 0
1 121 -58 0
1 121 -122 0
1 68 48 0
1 -68 50 0
1 -68 -124 0
1 68 -63 0
1 -69 123 0
1 69 48 0
1 69 -68 0
1 69 63 0
1 69 27 0
1 -76 -51 0
1 76 -134 0
1 76 67 0
1 -76 -60 0
1 -76 -41 0
1 76 135 0
1 -76 136 0
1 -76 -70 0
1 76 -63 0
1 -137 -123 0
1 137 51 0
1 -137 60 0
1 -137 -124 0
1 137 -63 0
1 51 47 0
1 -51 -138 0
1 -51 139 0
1 51 71 0
1 -51 140 0
1 -51 85 0
1 -141 139 0
1 141 74 0
1 141 76 0
1 -141 -46 0
1 -141 71 0
1 141 140 0
1 141 86 0
1 -55 69 0
1 -55 43 0
1 -55 76 0
1 -55 -71 0
1 135 -55 0
1 135 -76 0
1 135 -68 0
1 135 142 0
1 -135 -71 0
1 74 -67 0
1 74 136 0
1 74 85 0
1 -85 51 0
1 -85 -73 0
1 85 65 0
1 -85 136 0
1 85 70 0
1 -85 38 0
1 -85 19 0
1 -84 143 0
1 -84 -82 0
1 -84 -144 0
1 -84 145 0
1 84 -141 0
1 -84 136 0
1 -84 -70 0
1 84 -86 0
1 -86 70 0
1 -86 87 0
1 -86 -143 0
1 -86 75 0
1 86 19 0
1 67 83 0
1 -67 84 0
1 -67 -76 0
1 -67 146 0
1 -67 -85 0
1 67 137 0
1 -70 -95 0
1 70 83 0
1 70 76 0
1 -70 81 0
1 134 -48 0
1 134 -147 0
1 -134 -74 0
1 -134 76 0
1 -136 -148 0
1 136 149 0
1 136 84 0
1 136 -146 0
1 136 150 0
1 136 -86 0
1 -136 85 0
1 -83 -67 0
1 -83 -80 0
1 83 81 0
1 -81 77 0
1 81 -78 0
1 -81 151 0
1 81 -145 0
1 -81 -72 0
1 -81 -140 0
1 -81 -143 0
1 -81 -75 0
1 -81 -19 0
1 -95 -152 0
1 -95 -67 0
1 95 153 0
1 95 80 0
1 -95 -97 0
1 95 -75 0
1 -95 -154 0
1 -97 -155 0
1 -97 145 0
1 -97 99 0
1 -97 143 0
1 -97 154 0
1 145 89 0
1 145 65 0
1 145 -156 0
1 -145 157 0
1 -145 -91 0
1 -145 -86 0
1 -75 -145 0
1 75 -158 0
1 -151 159 0
1 -151 -148 0
1 151 60 0
1 151 158 0
1 143 -160 0
1 -143 -95 0
1 143 -63 0
1 143 -161 0
1 89 -155 0
1 89 148 0
1 89 -162 0
1 -89 -154 0
1 91 -89 0
1 -91 28 0
1 91 -40 0
1 -91 162 0
1 -91 -80 0
1 91 26 0
1 91 39 0
1 -91 154 0
1 -163 164 0
1 -163 40 0
1 -163 -145 0
1 -163 -162 0
1 -163 -153 0
1 163 -92 0
1 -163 -39 0
1 -163 -75 0
1 -157 -155 0
1 157 -40 0
1 -157 153 0
1 -157 96 0
1 157 -92 0
1 157 -39 0
1 -153 -163 0
1 153 -95 0
1 -153 -165 0
1 -153 166 0
1 153 -101 0
1 -153 -157 0
1 155 100 0
1 -155 -77 0
1 155 163 0
1 -155 -89 0
1 155 -101 0
1 -155 -91 0
1 -155 97 0
1 162 89 0
1 -162 167 0
1 -162 91 0
1 -162 -168 0
1 -162 154 0
1 154 160 0
1 154 95 0
1 154 165 0
1 154 169 0
1 154 -157 0
1 154 -162 0
1 154 -91 0
1 100 -160 0
1 100 -155 0
1 -100 -88 0
1 100 153 0
1 -100 98 0
1 -101 100 0
1 101 158 0
1 -101 96 0
1 170 -171 0
1 170 -96 0
1 -170 92 0
1 -170 102 0
1 170 172 0
1 166 -164 0
1 166 173 0
1 166 -153 0
1 -166 -92 0
1 -92 -174 0
1 -92 175 0
1 173 -100 0
1 173 163 0
1 -173 -176 0
1 173 177 0
1 -173 -178 0
1 -173 166 0
1 173 157 0
1 173 175 0
1 -173 179 0
1 173 -170 0
1 96 -164 0
1 96 -180 0
1 -96 166 0
1 -96 -157 0
1 -96 -80 0
1 -164 100 0
1 164 -163 0
1 -164 78 0
1 164 180 0
1 164 165 0
1 164 -157 0
1 164 -181 0
1 164 182 0
1 179 -183 0
1 -179 168 0
1 -174 173 0
1 174 165 0
1 174 102 0
1 175 183 0
1 175 -182 0
1 178 172 0
1 -178 -173 0
1 178 102 0
1 -178 175 0
1 172 184 0
1 172 -98 0
1 -183 -184 0
1 -183 -88 0
1 183 179 0
1 102 -178 0
1 -102 185 0
1 -102 -186 0
1 -102 -181 0
1 102 -179 0
1 -171 184 0
1 -171 177 0
1 -171 187 0
1 171 174 0
1 -171 -181 0
1 171 -179 0
1 -188 -189 0
1 188 -190 0
1 191 189 0
1 -191 -192 0
1 110 193 0
1 -110 189 0
1 193 194 0
1 -193 -195 0
1 -193 -190 0
1 193 -196 0
1 -189 -197 0
1 -189 -198 0
1 -189 -119 0
1 192 199 0
1 192 -193 0
1 192 -191 0
1 -192 -117 0
1 -192 200 0
1 201 193 0
1 -201 -191 0
1 -201 -190 0
1 201 188 0
1 -190 188 0
1 -119 -197 0
1 119 -194 0
1 119 196 0
1 197 119 0
1 -197 -196 0
1 117 202 0
1 117 118 0
1 -117 -199 0
1 117 -195 0
1 117 203 0
1 117 -204 0
1 -117 115 0
1 117 -192 0
1 199 -205 0
1 199 -204 0
1 199 -115 0
1 199 194 0
1 206 -207 0
1 -206 208 0
1 206 -113 0
1 -206 -197 0
1 206 -114 0
1 206 117 0
1 -206 -196 0
1 196 -207 0
1 196 -193 0
1 196 117 0
1 196 119 0
1 195 -207 0
1 -195 194 0
1 -195 199 0
1 -195 -197 0
1 -195 193 0
1 -195 -209 0
1 -195 110 0
1 -194 197 0
1 194 -195 0
1 -194 -119 0
1 -194 110 0
1 -114 202 0
1 114 205 0
1 -114 106 0
1 114 105 0
1 114 -203 0
1 -114 -109 0
1 -114 -196 0
1 -113 -202 0
1 -113 206 0
1 -113 -203 0
1 113 114 0
1 113 -109 0
1 113 -196 0
1 128 71 0
1 128 -204 0
1 -128 116 0
1 208 202 0
1 -208 125 0
1 -208 108 0
1 -208 -196 0
1 204 -126 0
1 -204 208 0
1 -204 113 0
1 -204 -210 0
1 204 -133 0
1 204 -128 0
1 -204 -117 0
1 -204 -211 0
1 204 212 0
1 205 -126 0
1 -205 -199 0
1 205 -210 0
1 -205 133 0
1 -205 204 0
1 205 -212 0
1 203 202 0
1 203 207 0
1 -203 208 0
1 -203 -113 0
1 203 -199 0
1 -203 210 0
1 -203 -213 0
1 203 -214 0
1 203 128 0
1 -203 -114 0
1 202 -215 0
1 202 -207 0
1 202 210 0
1 -202 203 0
1 -202 114 0
1 -202 117 0
1 127 -216 0
1 127 -108 0
1 127 121 0
1 -127 -116 0
1 -127 217 0
1 127 -109 0
1 127 112 0
1 126 -207 0
1 126 -205 0
1 -126 -216 0
1 126 127 0
1 126 204 0
1 -126 -109 0
1 -133 216 0
1 133 -218 0
1 -133 -121 0
1 -212 205 0
1 -212 -216 0
1 -212 219 0
1 -212 220 0
1 -212 218 0
1 212 -121 0
1 212 133 0
1 212 -204 0
1 -212 221 0
1 217 219 0
1 217 222 0
1 217 223 0
1 -217 224 0
1 219 131 0
1 -219 -128 0
1 219 224 0
1 -219 -130 0
1 116 208 0
1 116 -225 0
1 116 133 0
1 216 -208 0
1 -216 222 0
1 -216 225 0
1 216 -210 0
1 216 -133 0
1 -216 -116 0
1 -216 -224 0
1 -131 -219 0
1 131 -74 0
1 131 -121 0
1 -131 -210 0
1 131 124 0
1 -131 221 0
1 131 130 0
1 -131 -122 0
1 130 -123 0
1 130 122 0
1 -130 55 0
1 130 -218 0
1 -130 -135 0
1 -130 -85 0
1 -144 225 0
1 -144 132 0
1 144 -226 0
1 -226 219 0
1 226 220 0
1 -226 144 0
1 226 -218 0
1 226 -227 0
1 -226 -86 0
1 -226 228 0
1 -229 144 0
1 -229 -133 0
1 -229 -130 0
1 -229 230 0
1 218 -231 0
1 218 133 0
1 -218 -232 0
1 218 -140 0
1 218 226 0
1 -218 -229 0
1 -221 -233 0
1 -221 -222 0
1 221 144 0
1 -221 -232 0
1 221 -234 0
1 221 130 0
1 220 -233 0
1 -220 108 0
1 220 144 0
1 -220 -133 0
1 -220 -221 0
1 -220 -235 0
1 220 226 0
1 220 130 0
1 -220 -212 0
1 -139 -129 0
1 139 222 0
1 139 218 0
1 139 -132 0
1 -139 -141 0
1 -139 229 0
1 -140 55 0
1 -140 -51 0
1 140 139 0
1 -140 135 0
1 -140 -236 0
1 152 134 0
1 -152 95 0
1 -152 -142 0
1 150 129 0
1 -150 -237 0
1 150 -134 0
1 150 218 0
1 150 -227 0
1 -150 236 0
1 129 -139 0
1 -129 144 0
1 -129 -238 0
1 -129 -239 0
1 129 -146 0
1 129 150 0
1 227 129 0
1 227 -240 0
1 -227 159 0
1 227 148 0
1 -227 -152 0
1 -227 -139 0
1 -227 124 0
1 227 146 0
1 227 140 0
1 227 226 0
1 236 -240 0
1 -236 -152 0
1 236 139 0
1 236 -140 0
1 236 -226 0
1 132 -240 0
1 -132 -241 0
1 132 -139 0
1 132 -238 0
1 -132 -140 0
1 132 226 0
1 132 236 0
1 148 -129 0
1 -148 89 0
1 148 -231 0
1 -148 134 0
1 -148 142 0
1 -148 242 0
1 -146 -129 0
1 146 148 0
1 -146 138 0
1 146 134 0
1 -146 -151 0
1 -146 -227 0
1 -146 91 0
1 -146 232 0
1 -146 136 0
1 146 143 0
1 159 -163 0
1 159 237 0
1 159 -243 0
1 -159 242 0
1 -159 -149 0
1 239 -129 0
1 -239 237 0
1 239 -147 0
1 239 243 0
1 -239 157 0
1 -239 242 0
1 239 149 0
1 138 159 0
1 138 -148 0
1 -138 152 0
1 138 -169 0
1 -138 -146 0
1 -138 -242 0
1 -242 239 0
1 242 -146 0
1 -242 -141 0
1 -237 244 0
1 237 -245 0
1 237 152 0
1 237 -246 0
1 237 -247 0
1 237 142 0
1 237 -146 0
1 142 240 0
1 142 -237 0
1 142 148 0
1 -142 -246 0
1 142 248 0
1 -142 -150 0
1 -160 147 0
1 160 -162 0
1 160 242 0
1 -160 249 0
1 -160 75 0
1 160 154 0
1 158 -160 0
1 -158 -145 0
1 158 -101 0
1 -158 162 0
1 158 149 0
1 158 -249 0
1 -158 143 0
1 -250 -147 0
1 -250 -251 0
1 -250 -156 0
1 -250 -249 0
1 250 -161 0
1 -250 170 0
1 -250 -154 0
1 169 -243 0
1 -169 156 0
1 169 -149 0
1 243 -160 0
1 -243 249 0
1 -243 165 0
1 -243 -252 0
1 -249 160 0
1 249 243 0
1 249 -165 0
1 -249 158 0
1 -249 -239 0
1 249 253 0
1 -249 168 0
1 147 134 0
1 -147 -254 0
1 -147 246 0
1 -147 -158 0
1 147 -149 0
1 147 -252 0
1 -147 -250 0
1 -149 -246 0
1 149 -158 0
1 149 239 0
1 168 155 0
1 -168 -243 0
1 168 -251 0
1 168 153 0
1 -168 -96 0
1 168 161 0
1 -168 179 0
1 -168 -255 0
1 168 -154 0
1 165 -155 0
1 165 -164 0
1 165 -243 0
1 -165 156 0
1 165 -162 0
1 165 249 0
1 165 -161 0
1 165 168 0
1 165 -154 0
1 182 -164 0
1 -182 251 0
1 -182 -249 0
1 -180 -256 0
1 -180 178 0
1 180 161 0
1 180 167 0
1 180 -257 0
1 -180 -255 0
1 -156 -180 0
1 156 -258 0
1 -156 -259 0
1 -156 -186 0
1 -156 255 0
1 156 -182 0
1 156 -168 0
1 -255 -180 0
1 -255 -165 0
1 255 -156 0
1 255 181 0
1 251 260 0
1 251 -165 0
1 251 161 0
1 251 261 0
1 -251 168 0
1 161 180 0
1 161 165 0
1 161 169 0
1 -161 259 0
1 161 -252 0
1 -161 -262 0
1 -161 250 0
1 -181 -164 0
1 181 -171 0
1 181 -257 0
1 -181 96 0
1 181 -102 0
1 -177 -263 0
1 177 164 0
1 177 -173 0
1 177 -171 0
1 -177 92 0
1 -177 -255 0
1 -186 -263 0
1 186 -256 0
1 186 264 0
1 -186 261 0
1 -186 265 0
1 186 266 0
1 186 102 0
1 267 264 0
1 267 -268 0
1 -267 176 0
1 -267 167 0
1 -267 102 0
1 257 269 0
1 -257 177 0
1 -257 180 0
1 257 270 0
1 -257 -185 0
1 257 -181 0
1 256 271 0
1 -256 -269 0
1 256 180 0
1 -256 -270 0
1 167 -267 0
1 167 272 0
1 167 -186 0
1 -167 -182 0
1 263 -180 0
1 -263 272 0
1 -263 181 0
1 -263 -154 0
1 185 -184 0
1 -185 -176 0
1 185 -171 0
1 -185 -257 0
1 -185 266 0
1 -185 102 0
1 -185 172 0
1 184 -185 0
1 184 102 0
1 -184 172 0
1 270 256 0
1 270 264 0
1 -270 272 0
1 270 257 0
1 270 -265 0
1 -270 273 0
1 269 274 0
1 -269 -264 0
1 269 187 0
1 269 -275 0
1 -269 -270 0
1 269 257 0
1 -269 265 0
1 -269 273 0
1 -269 -276 0
1 266 269 0
1 -266 -184 0
1 -266 277 0
1 266 185 0
1 266 -92 0
1 -266 278 0
1 176 269 0
1 -176 277 0
1 -176 270 0
1 176 -266 0
1 -265 271 0
1 -265 -269 0
1 -265 -184 0
1 265 267 0
1 -265 279 0
1 265 280 0
1 -265 185 0
1 -265 -281 0
1 -264 -279 0
1 264 265 0
1 277 -280 0
1 277 -282 0
1 277 -266 0
1 -277 276 0
1 -282 176 0
1 -282 187 0
1 282 -277 0
1 282 276 0
1 283 187 0
1 283 275 0
1 283 279 0
1 -283 -276 0
1 278 -176 0
1 -278 187 0
1 -278 -276 0
1 -276 -277 0
1 276 278 0
1 -275 283 0
1 275 277 0
1 -275 -278 0
1 273 -102 0
1 -187 -273 0
1 -187 -282 0
1 284 -207 0
1 -284 198 0
1 284 194 0
1 -284 196 0
1 -207 -126 0
1 207 206 0
1 207 -194 0
1 -207 -196 0
1 213 285 0
1 -213 198 0
1 213 209 0
1 213 286 0
1 -213 -287 0
1 215 -202 0
1 -215 288 0
1 -215 198 0
1 -215 -213 0
1 -215 203 0
1 -215 200 0
1 -198 215 0
1 -198 207 0
1 198 210 0
1 198 -213 0
1 -198 284 0
1 198 211 0
1 200 -225 0
1 -200 -210 0
1 -200 192 0
1 -200 -228 0
1 -200 -289 0
1 200 -211 0
1 -288 215 0
1 -288 -213 0
1 288 -287 0
1 287 215 0
1 -210 -285 0
1 -210 -202 0
1 -210 205 0
1 -210 -290 0
1 210 -198 0
1 210 -204 0
1 -211 205 0
1 211 216 0
1 -211 -198 0
1 -211 -210 0
1 -211 204 0
1 225 -216 0
1 225 286 0
1 228 209 0
1 228 -291 0
1 -228 290 0
1 -286 215 0
1 -286 -285 0
1 286 292 0
1 -286 -222 0
1 -286 225 0
1 286 -210 0
1 286 -293 0
1 -286 -224 0
1 -286 228 0
1 -285 -215 0
1 -285 294 0
1 -285 -233 0
1 285 -222 0
1 -285 -210 0
1 285 -286 0
1 285 295 0
1 -285 -196 0
1 209 290 0
1 -209 225 0
1 209 210 0
1 -209 213 0
1 209 -228 0
1 -290 292 0
1 -290 -210 0
1 290 -209 0
1 290 213 0
1 -290 -228 0
1 290 -296 0
1 -222 219 0
1 -222 220 0
1 -222 -286 0
1 222 -116 0
1 224 -285 0
1 224 297 0
1 224 216 0
1 -224 220 0
1 224 -217 0
1 224 221 0
1 224 116 0
1 -224 -140 0
1 233 -297 0
1 233 -298 0
1 -233 -220 0
1 233 235 0
1 -235 -299 0
1 235 297 0
1 -235 -298 0
1 235 233 0
1 235 220 0
1 235 286 0
1 -235 -214 0
1 235 -291 0
1 -291 -241 0
1 -291 231 0
1 -291 233 0
1 -291 -232 0
1 291 -235 0
1 297 -300 0
1 297 -231 0
1 297 301 0
1 297 302 0
1 -297 -232 0
1 297 -224 0
1 214 -299 0
1 -214 300 0
1 -214 292 0
1 -214 203 0
1 -214 303 0
1 214 304 0
1 214 -235 0
1 -214 228 0
1 -299 -300 0
1 -299 -305 0
1 -299 292 0
1 -299 -214 0
1 299 295 0
1 -231 -297 0
1 231 292 0
1 231 -306 0
1 -231 218 0
1 231 -291 0
1 -231 307 0
1 231 223 0
1 231 -229 0
1 -232 297 0
1 -232 298 0
1 232 218 0
1 -232 132 0
1 -232 -291 0
1 -232 -295 0
1 232 -223 0
1 232 221 0
1 241 159 0
1 -241 -308 0
1 -241 -291 0
1 -302 298 0
1 -302 309 0
1 302 132 0
1 302 291 0
1 -302 -307 0
1 223 -310 0
1 223 -232 0
1 223 235 0
1 223 -217 0
1 306 -240 0
1 306 -247 0
1 306 302 0
1 -306 -223 0
1 -307 -311 0
1 307 298 0
1 307 -301 0
1 -307 -302 0
1 -307 232 0
1 307 -116 0
1 -307 -235 0
1 -298 231 0
1 -298 -307 0
1 298 216 0
1 -298 -233 0
1 298 312 0
1 298 -313 0
1 -298 -235 0
1 298 314 0
1 -240 129 0
1 -240 300 0
1 -240 -308 0
1 -240 309 0
1 -240 -132 0
1 -240 -227 0
1 -240 -238 0
1 240 -142 0
1 -240 -223 0
1 -240 -234 0
1 240 236 0
1 -238 308 0
1 238 -309 0
1 238 132 0
1 -238 158 0
1 238 -142 0
1 -238 -234 0
1 238 -236 0
1 244 -315 0
1 -244 -306 0
1 244 -316 0
1 -244 -223 0
1 -247 315 0
1 -247 -309 0
1 -247 169 0
1 -247 313 0
1 230 241 0
1 -230 -317 0
1 -230 238 0
1 230 302 0
1 -309 -302 0
1 -309 -318 0
1 -234 241 0
1 234 -319 0
1 234 310 0
1 -234 247 0
1 -234 320 0
1 234 -221 0
1 -234 314 0
1 308 -244 0
1 308 241 0
1 308 -321 0
1 308 319 0
1 -308 -318 0
1 -308 -234 0
1 246 315 0
1 -246 -322 0
1 246 138 0
1 246 309 0
1 -246 -310 0
1 246 -316 0
1 246 -149 0
1 -323 -322 0
1 323 -245 0
1 -323 -316 0
1 323 -182 0
1 -317 315 0
1 317 -322 0
1 317 324 0
1 317 309 0
1 -317 316 0
1 317 -325 0
1 317 326 0
1 -317 -149 0
1 -317 230 0
1 -322 -327 0
1 322 328 0
1 322 268 0
1 -322 -317 0
1 -322 247 0
1 322 325 0
1 322 329 0
1 -322 323 0
1 -325 244 0
1 325 322 0
1 325 -268 0
1 -325 260 0
1 325 317 0
1 325 247 0
1 325 -252 0
1 325 -323 0
1 -315 330 0
1 315 331 0
1 315 316 0
1 -315 329 0
1 316 244 0
1 316 -315 0
1 -316 246 0
1 316 132 0
1 -316 247 0
1 316 -332 0
1 -316 323 0
1 252 -322 0
1 252 -147 0
1 252 251 0
1 252 -248 0
1 -252 326 0
1 -260 322 0
1 260 249 0
1 260 177 0
1 -260 -147 0
1 -260 324 0
1 260 251 0
1 -260 -149 0
1 260 -161 0
1 -261 -322 0
1 -261 245 0
1 -261 333 0
1 -261 161 0
1 -261 -334 0
1 268 267 0
1 268 -324 0
1 268 -333 0
1 -268 334 0
1 268 253 0
1 324 -335 0
1 -324 -317 0
1 -324 -336 0
1 -324 -272 0
1 -324 -252 0
1 326 337 0
1 326 -335 0
1 326 324 0
1 326 272 0
1 -326 242 0
1 -326 -261 0
1 -326 323 0
1 -245 -268 0
1 245 260 0
1 -245 -336 0
1 -245 329 0
1 245 -252 0
1 248 337 0
1 248 268 0
1 -248 -245 0
1 -248 -260 0
1 248 336 0
1 -248 329 0
1 -259 324 0
1 -259 254 0
1 259 -156 0
1 259 -167 0
1 259 329 0
1 335 -324 0
1 335 254 0
1 335 167 0
1 335 334 0
1 -335 -253 0
1 335 161 0
1 335 255 0
1 272 263 0
1 -272 -324 0
1 -272 -338 0
1 272 -167 0
1 272 -270 0
1 272 -334 0
1 -272 253 0
1 272 -262 0
1 274 -339 0
1 -274 338 0
1 274 340 0
1 333 271 0
1 -333 274 0
1 -333 -243 0
1 -333 279 0
1 253 -274 0
1 -253 268 0
1 -253 -333 0
1 -253 -261 0
1 253 249 0
1 -253 281 0
1 -334 335 0
1 334 254 0
1 334 272 0
1 334 -261 0
1 -280 -271 0
1 280 338 0
1 280 -167 0
1 -280 336 0
1 280 253 0
1 280 262 0
1 -280 -340 0
1 -271 263 0
1 -271 -337 0
1 -271 -258 0
1 271 -167 0
1 271 -262 0
1 271 -282 0
1 279 -333 0
1 279 265 0
1 -279 340 0
1 -281 -333 0
1 281 -279 0
1 -281 253 0
1 -281 278 0
1 281 -341 0
1 -258 -271 0
1 258 -156 0
1 -340 -279 0
1 -340 -255 0
1 -338 271 0
1 338 -280 0
1 -338 -262 0
1 262 274 0
1 262 -338 0
1 262 -280 0
1 262 -281 0
1 -292 285 0
1 292 342 0
1 -292 343 0
1 -292 286 0
1 292 -214 0
1 -292 295 0
1 -292 344 0
1 292 289 0
1 -295 285 0
1 295 -342 0
1 -295 -209 0
1 -295 -214 0
1 -295 -344 0
1 -295 -290 0
1 -345 299 0
1 -345 293 0
1 345 289 0
1 -303 342 0
1 -303 346 0
1 303 302 0
1 303 214 0
1 303 -344 0
1 303 -289 0
1 303 296 0
1 343 313 0
1 -343 347 0
1 343 303 0
1 -343 -289 0
1 -289 300 0
1 -289 292 0
1 -289 -343 0
1 -289 -313 0
1 289 -295 0
1 342 -288 0
1 342 303 0
1 -342 295 0
1 -344 342 0
1 -344 -303 0
1 344 -287 0
1 300 294 0
1 -300 297 0
1 300 -346 0
1 300 -214 0
1 301 300 0
1 301 -343 0
1 -301 238 0
1 301 -293 0
1 -301 214 0
1 -301 -291 0
1 -311 348 0
1 311 -313 0
1 -311 346 0
1 -311 304 0
1 311 -307 0
1 -313 -311 0
1 -313 294 0
1 -313 348 0
1 313 -343 0
1 -313 304 0
1 -313 349 0
1 293 319 0
1 293 310 0
1 -293 -301 0
1 293 350 0
1 -293 -303 0
1 293 -351 0
1 294 300 0
1 294 313 0
1 -294 293 0
1 -294 -351 0
1 294 352 0
1 294 314 0
1 -346 345 0
1 346 353 0
1 346 -351 0
1 -296 311 0
1 296 -354 0
1 296 300 0
1 296 -355 0
1 -296 346 0
1 314 -348 0
1 314 298 0
1 -310 -348 0
1 310 -298 0
1 -310 -246 0
1 310 349 0
1 -352 -305 0
1 352 -348 0
1 352 -312 0
1 -352 -308 0
1 352 319 0
1 -352 -293 0
1 352 -304 0
1 -352 -356 0
1 352 234 0
1 319 348 0
1 -319 357 0
1 -319 349 0
1 -319 234 0
1 319 -352 0
1 -349 319 0
1 -349 -318 0
1 -349 314 0
1 348 -311 0
1 348 -297 0
1 348 358 0
1 -348 319 0
1 348 313 0
1 -348 -359 0
1 -348 332 0
1 -348 -318 0
1 -304 311 0
1 304 355 0
1 -304 -313 0
1 304 360 0
1 304 351 0
1 -304 314 0
1 -305 -361 0
1 305 355 0
1 305 -310 0
1 -305 -313 0
1 305 -304 0
1 -305 -352 0
1 305 -314 0
1 -318 -308 0
1 318 316 0
1 318 349 0
1 318 351 0
1 318 -230 0
1 -321 -348 0
1 321 312 0
1 321 309 0
1 -321 -362 0
1 321 234 0
1 -332 315 0
1 332 -348 0
1 -332 331 0
1 -332 -363 0
1 332 -349 0
1 -331 348 0
1 331 -361 0
1 -331 316 0
1 331 -349 0
1 -356 -223 0
1 356 364 0
1 -356 -329 0
1 357 -365 0
1 357 -339 0
1 -357 306 0
1 -357 -366 0
1 -357 352 0
1 362 -331 0
1 362 321 0
1 -362 312 0
1 -362 -366 0
1 362 -352 0
1 312 -365 0
1 -312 -358 0
1 312 -359 0
1 -312 362 0
1 -312 352 0
1 329 -320 0
1 328 -315 0
1 328 322 0
1 328 245 0
1 -328 -363 0
1 -328 316 0
1 -328 -329 0
1 -328 -320 0
1 328 367 0
1 364 339 0
1 -364 -245 0
1 -364 357 0
1 -364 -368 0
1 364 -369 0
1 -364 -248 0
1 -339 -327 0
1 339 -370 0
1 -339 -357 0
1 -339 -368 0
1 -339 -363 0
1 -339 -369 0
1 -339 -364 0
1 -339 -356 0
1 -339 367 0
1 -367 371 0
1 367 230 0
1 -367 341 0
1 -363 -339 0
1 363 -371 0
1 363 364 0
1 -363 -341 0
1 320 -331 0
1 -320 -368 0
1 -320 -366 0
1 320 364 0
1 -368 365 0
1 -368 339 0
1 -368 372 0
1 -368 -366 0
1 -368 -364 0
1 -368 -329 0
1 -368 332 0
1 -336 -327 0
1 336 -324 0
1 336 280 0
1 336 -248 0
1 -336 367 0
1 337 -327 0
1 337 245 0
1 -337 -326 0
1 -371 -330 0
1 -371 -367 0
1 -371 -254 0
1 -371 -363 0
1 -371 372 0
1 371 -369 0
1 -341 373 0
1 -341 330 0
1 -341 254 0
1 -341 363 0
1 341 374 0
1 -341 369 0
1 -341 -334 0
1 327 -339 0
1 369 339 0
1 -369 -327 0
1 369 364 0
1 330 371 0
1 -330 374 0
1 -330 -364 0
1 374 -330 0
1 -351 375 0
1 351 -294 0
1 -351 -346 0
1 -351 304 0
1 351 296 0
1 355 294 0
1 355 321 0
1 355 -347 0
1 355 -304 0
1 355 375 0
1 355 -376 0
1 -360 -354 0
1 360 -377 0
1 -360 -305 0
1 -360 378 0
1 -360 347 0
1 360 -353 0
1 360 332 0
1 360 376 0
1 -361 -305 0
1 361 347 0
1 361 -353 0
1 361 -350 0
1 -347 -370 0
1 -347 -358 0
1 -347 376 0
1 347 -355 0
1 347 -379 0
1 347 359 0
1 -347 -351 0
1 -376 -370 0
1 376 355 0
1 -376 379 0
1 -376 359 0
1 378 342 0
1 378 -375 0
1 375 -361 0
1 375 355 0
1 375 -344 0
1 375 -378 0
1 375 -351 0
1 -359 354 0
1 -359 -348 0
1 359 -358 0
1 -359 -312 0
1 -359 353 0
1 -359 -350 0
1 -359 -304 0
1 -359 -329 0
1 358 354 0
1 358 377 0
1 358 -348 0
1 379 -354 0
1 379 -377 0
1 -379 -370 0
1 -379 312 0
1 -379 -347 0
1 379 -350 0
1 379 380 0
1 -379 381 0
1 -370 -339 0
1 370 -382 0
1 370 362 0
1 -350 373 0
1 350 -365 0
1 -350 377 0
1 350 -358 0
1 350 361 0
1 -350 -379 0
1 350 -360 0
1 377 -373 0
1 -377 365 0
1 -377 361 0
1 377 -366 0
1 377 -350 0
1 377 360 0
1 -353 358 0
1 353 379 0
1 353 359 0
1 -354 -361 0
1 354 -353 0
1 354 379 0
1 354 -359 0
1 -354 -360 0
1 354 -296 0
1 366 -365 0
1 -366 382 0
1 -366 -312 0
1 366 -357 0
1 366 -381 0
1 365 337 0
1 365 383 0
1 365 -382 0
1 365 366 0
1 -365 350 0
1 365 320 0
1 372 373 0
1 372 377 0
1 372 382 0
1 -372 -368 0
1 -372 371 0
1 -372 381 0
1 372 -320 0
1 373 -368 0
1 373 -380 0
1 -373 -381 0
1 -381 365 0
1 381 366 0
1 -381 349 0
1 382 366 0
1 -382 -381 0
1 380 -373 0
1 380 383 0
1 380 -372 0
1 380 379 0
1 383 -305 0
1 -383 -366 0
1 383 379 0
